90
1571
45
0 4
0 7
0 12
0 13
0 15
0 20
0 21
0 24
0 26
0 28
0 29
0 30
0 32
0 36
0 41
0 43
0 50
0 54
0 55
0 60
0 65
0 67
0 71
0 72
0 73
0 74
0 75
0 76
0 79
0 85
0 87
1 2
1 4
1 5
1 6
1 7
1 8
1 19
1 20
1 25
1 26
1 31
1 35
1 36
1 42
1 44
1 49
1 54
1 56
1 57
1 58
1 60
1 61
1 62
1 64
1 66
1 68
1 70
1 71
1 72
1 76
1 79
1 80
1 83
2 3
2 4
2 6
2 7
2 9
2 10
2 11
2 12
2 15
2 19
2 20
2 22
2 23
2 27
2 29
2 32
2 34
2 35
2 36
2 37
2 38
2 40
2 41
2 43
2 44
2 45
2 46
2 47
2 48
2 49
2 50
2 60
2 63
2 66
2 67
2 68
2 71
2 72
2 77
2 78
2 86
2 87
3 4
3 8
3 10
3 11
3 12
3 16
3 17
3 19
3 31
3 33
3 35
3 37
3 39
3 41
3 42
3 43
3 44
3 47
3 49
3 50
3 51
3 53
3 58
3 60
3 63
3 64
3 70
3 83
3 85
3 89
4 5
4 7
4 8
4 10
4 17
4 21
4 25
4 26
4 28
4 29
4 32
4 33
4 34
4 39
4 40
4 42
4 43
4 47
4 48
4 50
4 57
4 62
4 64
4 65
4 66
4 68
4 79
4 80
4 86
4 87
4 88
4 89
5 8
5 15
5 19
5 24
5 25
5 27
5 28
5 29
5 31
5 32
5 33
5 34
5 39
5 47
5 48
5 53
5 57
5 58
5 59
5 61
5 62
5 64
5 65
5 67
5 68
5 69
5 71
5 72
5 74
5 76
5 82
5 83
5 86
5 88
6 7
6 14
6 16
6 17
6 19
6 21
6 23
6 28
6 30
6 34
6 38
6 47
6 52
6 55
6 56
6 57
6 59
6 62
6 66
6 68
6 69
6 71
6 73
6 79
6 80
6 82
6 86
7 8
7 9
7 10
7 15
7 24
7 26
7 27
7 31
7 33
7 35
7 37
7 44
7 46
7 49
7 50
7 54
7 56
7 58
7 60
7 61
7 62
7 63
7 65
7 66
7 70
7 71
7 73
7 76
7 79
7 84
7 88
7 89
8 11
8 12
8 19
8 21
8 25
8 26
8 31
8 34
8 36
8 37
8 38
8 39
8 40
8 42
8 44
8 50
8 51
8 53
8 54
8 59
8 62
8 63
8 64
8 65
8 66
8 68
8 70
8 72
8 82
8 85
9 13
9 16
9 18
9 19
9 20
9 22
9 23
9 25
9 26
9 29
9 34
9 38
9 39
9 41
9 42
9 46
9 48
9 51
9 54
9 55
9 57
9 58
9 61
9 62
9 65
9 66
9 68
9 69
9 74
9 76
9 77
9 79
9 81
9 84
9 89
10 11
10 15
10 16
10 18
10 23
10 25
10 32
10 42
10 45
10 46
10 54
10 56
10 57
10 58
10 59
10 64
10 72
10 73
10 75
10 76
10 77
10 81
10 84
10 85
10 86
10 87
10 89
11 12
11 19
11 22
11 28
11 30
11 31
11 34
11 35
11 37
11 39
11 41
11 42
11 43
11 44
11 45
11 51
11 53
11 54
11 56
11 62
11 64
11 65
11 68
11 69
11 72
11 74
11 79
11 82
11 83
11 84
11 87
11 89
12 14
12 16
12 17
12 18
12 20
12 21
12 27
12 33
12 39
12 40
12 41
12 48
12 53
12 54
12 58
12 61
12 65
12 73
12 80
12 81
12 88
12 89
13 17
13 20
13 21
13 22
13 28
13 29
13 36
13 41
13 46
13 54
13 56
13 59
13 62
13 67
13 69
13 70
13 73
13 83
13 84
13 87
14 17
14 19
14 20
14 22
14 24
14 26
14 27
14 31
14 33
14 38
14 40
14 41
14 42
14 44
14 46
14 47
14 48
14 52
14 53
14 59
14 60
14 61
14 63
14 66
14 67
14 73
14 74
14 75
14 78
14 80
14 81
14 82
14 84
14 85
14 86
14 88
15 20
15 26
15 27
15 33
15 38
15 41
15 46
15 49
15 50
15 52
15 53
15 54
15 59
15 60
15 65
15 68
15 69
15 71
15 73
15 76
15 77
15 79
15 81
15 83
15 85
16 19
16 20
16 21
16 22
16 23
16 24
16 26
16 29
16 30
16 36
16 40
16 43
16 49
16 55
16 56
16 61
16 62
16 63
16 67
16 69
16 70
16 71
16 72
16 73
16 74
16 80
16 82
16 84
16 85
16 89
17 18
17 21
17 24
17 25
17 27
17 29
17 31
17 32
17 35
17 41
17 42
17 43
17 47
17 48
17 49
17 51
17 52
17 53
17 56
17 57
17 60
17 70
17 71
17 73
17 74
17 76
17 81
17 83
17 84
17 85
17 87
17 88
18 21
18 25
18 26
18 28
18 31
18 33
18 36
18 37
18 41
18 43
18 44
18 47
18 52
18 58
18 60
18 64
18 66
18 67
18 70
18 76
18 77
18 78
18 82
18 84
18 87
18 88
19 20
19 21
19 22
19 24
19 25
19 27
19 28
19 29
19 30
19 31
19 34
19 35
19 38
19 40
19 41
19 45
19 47
19 48
19 57
19 58
19 60
19 63
19 68
19 69
19 75
19 77
19 78
19 80
19 81
19 83
19 86
19 88
19 89
20 23
20 25
20 26
20 27
20 28
20 30
20 31
20 32
20 35
20 39
20 43
20 45
20 48
20 50
20 55
20 59
20 60
20 62
20 64
20 66
20 67
20 68
20 76
20 77
20 79
20 84
20 85
20 86
20 87
20 88
21 22
21 25
21 27
21 32
21 34
21 38
21 43
21 45
21 48
21 49
21 54
21 56
21 57
21 59
21 63
21 66
21 67
21 68
21 69
21 72
21 74
21 77
21 78
21 83
21 85
22 24
22 26
22 28
22 30
22 31
22 36
22 37
22 39
22 41
22 44
22 45
22 46
22 51
22 52
22 56
22 60
22 61
22 62
22 63
22 64
22 70
22 71
22 79
22 82
22 84
22 86
22 87
23 24
23 26
23 27
23 31
23 37
23 39
23 40
23 41
23 46
23 47
23 52
23 53
23 54
23 56
23 57
23 59
23 66
23 67
23 70
23 71
23 74
23 76
23 77
23 81
23 82
23 87
23 89
24 25
24 26
24 28
24 30
24 33
24 34
24 38
24 41
24 44
24 45
24 46
24 50
24 53
24 54
24 55
24 56
24 65
24 68
24 69
24 70
24 76
24 78
24 79
24 81
24 82
24 84
24 85
24 86
24 88
25 26
25 27
25 28
25 29
25 32
25 34
25 37
25 38
25 41
25 42
25 43
25 45
25 49
25 51
25 56
25 57
25 59
25 64
25 66
25 67
25 69
25 70
25 72
25 73
25 74
25 76
25 77
25 79
25 81
25 82
25 83
25 86
25 89
26 29
26 33
26 41
26 45
26 46
26 49
26 50
26 57
26 60
26 61
26 64
26 70
26 71
26 72
26 75
26 76
26 78
26 79
26 81
26 88
26 89
27 28
27 34
27 37
27 39
27 42
27 46
27 48
27 49
27 55
27 60
27 61
27 63
27 69
27 70
27 76
27 77
27 78
27 79
27 82
27 83
27 84
28 32
28 36
28 37
28 38
28 40
28 41
28 43
28 46
28 47
28 49
28 50
28 51
28 52
28 58
28 61
28 62
28 65
28 67
28 68
28 69
28 70
28 76
28 78
28 79
28 81
28 83
28 84
28 87
29 31
29 32
29 33
29 35
29 40
29 41
29 42
29 55
29 57
29 58
29 59
29 60
29 61
29 69
29 70
29 73
29 75
29 77
29 78
29 79
29 80
29 82
29 83
29 85
29 87
30 32
30 35
30 48
30 52
30 53
30 54
30 59
30 62
30 63
30 66
30 69
30 70
30 72
30 75
30 77
30 82
30 88
30 89
31 33
31 34
31 36
31 37
31 38
31 39
31 40
31 41
31 44
31 45
31 49
31 53
31 58
31 59
31 61
31 65
31 66
31 69
31 75
31 76
31 77
31 79
31 80
31 81
31 87
31 88
32 35
32 39
32 41
32 46
32 47
32 49
32 50
32 52
32 53
32 57
32 59
32 60
32 61
32 64
32 65
32 66
32 67
32 69
32 72
32 74
32 75
32 76
32 79
32 87
32 88
33 44
33 50
33 52
33 56
33 57
33 59
33 60
33 62
33 65
33 69
33 71
33 77
33 78
33 79
33 81
34 35
34 39
34 45
34 46
34 48
34 50
34 56
34 57
34 60
34 61
34 66
34 69
34 71
34 72
34 78
34 80
34 86
34 88
35 41
35 43
35 44
35 46
35 49
35 50
35 55
35 57
35 58
35 63
35 64
35 68
35 69
35 70
35 73
35 78
35 79
35 80
35 83
35 87
36 41
36 42
36 43
36 46
36 47
36 50
36 51
36 52
36 53
36 58
36 64
36 65
36 66
36 76
36 80
36 81
36 83
36 85
36 87
36 89
37 38
37 43
37 45
37 46
37 52
37 55
37 59
37 62
37 63
37 64
37 65
37 66
37 67
37 70
37 71
37 74
37 75
37 77
37 81
37 87
37 88
37 89
38 45
38 46
38 47
38 48
38 49
38 54
38 56
38 57
38 58
38 59
38 62
38 64
38 67
38 71
38 72
38 73
38 74
38 82
38 89
39 40
39 42
39 43
39 45
39 51
39 54
39 56
39 57
39 58
39 59
39 65
39 66
39 67
39 69
39 70
39 72
39 73
39 81
39 85
39 89
40 42
40 43
40 49
40 52
40 55
40 56
40 58
40 60
40 62
40 67
40 70
40 72
40 78
40 81
40 82
40 83
40 85
40 88
41 43
41 45
41 46
41 49
41 52
41 57
41 61
41 66
41 68
41 72
41 76
41 80
41 81
41 85
41 89
42 46
42 48
42 53
42 56
42 59
42 61
42 62
42 65
42 68
42 71
42 72
42 76
42 78
42 79
42 81
42 83
42 84
42 85
42 86
42 89
43 45
43 48
43 51
43 52
43 54
43 55
43 60
43 61
43 62
43 63
43 65
43 70
43 72
43 74
43 76
43 78
43 82
43 84
43 85
43 86
43 87
43 88
43 89
44 49
44 51
44 55
44 57
44 59
44 61
44 64
44 69
44 73
44 74
44 76
44 79
44 81
44 84
44 86
44 89
45 46
45 47
45 50
45 52
45 54
45 56
45 58
45 63
45 65
45 68
45 72
45 74
45 81
45 82
45 83
45 85
45 86
45 87
45 88
45 89
46 47
46 48
46 54
46 55
46 56
46 57
46 59
46 61
46 62
46 65
46 70
46 71
46 74
46 75
46 77
46 79
46 83
46 89
47 48
47 49
47 54
47 55
47 59
47 66
47 70
47 71
47 78
47 80
47 83
47 85
47 86
47 88
48 49
48 51
48 54
48 55
48 56
48 57
48 59
48 60
48 62
48 63
48 64
48 66
48 67
48 68
48 69
48 71
48 74
48 77
48 81
48 84
48 85
48 86
48 87
48 88
48 89
49 53
49 54
49 62
49 66
49 67
49 68
49 70
49 72
49 73
49 75
49 76
49 77
49 81
49 83
49 85
49 86
49 87
49 89
50 51
50 52
50 53
50 61
50 62
50 64
50 65
50 66
50 71
50 74
50 75
50 76
50 80
50 81
50 82
50 83
50 85
51 54
51 55
51 59
51 60
51 61
51 62
51 65
51 66
51 71
51 72
51 74
51 76
51 78
51 84
51 85
51 86
51 87
52 53
52 55
52 56
52 57
52 58
52 60
52 61
52 62
52 65
52 67
52 69
52 70
52 71
52 72
52 77
52 78
52 81
52 82
52 86
52 89
53 56
53 57
53 58
53 60
53 61
53 63
53 66
53 67
53 68
53 69
53 70
53 72
53 75
53 78
53 79
53 80
53 82
53 86
53 89
54 58
54 60
54 71
54 72
54 73
54 75
54 81
54 88
54 89
55 56
55 57
55 62
55 66
55 68
55 69
55 73
55 74
55 77
55 80
55 82
55 83
55 85
55 89
56 57
56 58
56 59
56 64
56 66
56 69
56 70
56 77
56 80
56 85
57 60
57 65
57 68
57 72
57 73
57 76
57 80
57 82
57 85
57 87
58 59
58 62
58 64
58 65
58 68
58 69
58 72
58 73
58 78
58 82
58 83
58 85
58 87
59 61
59 63
59 65
59 69
59 70
59 78
59 79
59 81
59 84
59 85
59 89
60 61
60 63
60 64
60 66
60 70
60 71
60 72
60 77
60 80
60 81
60 82
60 87
60 88
60 89
61 62
61 68
61 69
61 72
61 75
61 79
61 83
61 84
61 87
62 64
62 67
62 69
62 70
62 71
62 73
62 74
62 76
62 80
62 83
62 85
62 87
62 88
63 64
63 68
63 69
63 75
63 79
63 80
63 81
63 84
63 87
64 66
64 67
64 68
64 70
64 75
64 79
64 80
64 84
64 85
64 88
64 89
65 73
65 76
65 78
65 80
65 85
66 67
66 71
66 77
66 78
66 82
66 83
66 86
66 87
67 70
67 72
67 78
67 80
67 82
68 71
68 73
68 75
68 76
68 82
68 86
68 89
69 72
69 73
69 74
69 76
69 77
69 79
69 81
69 88
70 72
70 78
70 79
70 84
70 86
70 87
70 89
71 73
71 76
71 77
71 78
71 80
71 81
71 83
71 86
71 87
71 88
72 73
72 77
72 79
72 84
72 88
73 77
73 79
73 83
73 86
73 87
73 88
74 79
74 80
74 84
74 85
74 87
74 89
75 77
75 78
75 82
75 83
75 84
75 85
75 87
76 79
76 80
76 81
76 82
76 86
76 88
77 78
77 81
77 83
77 86
77 87
78 79
78 80
78 84
78 87
78 88
78 89
79 82
79 85
79 86
79 87
79 88
80 81
80 86
80 87
81 85
81 88
82 84
82 87
83 88
84 85
85 87
85 89
86 87
86 88
86 89
15 57
32 48
14 16
65 68
77 82
18 73
20 44
55 76
41 46
38 71
2 6
9 59
60 79
19 86
52 84
21 29
34 36
58 83
35 74
50 56
22 45
17 53
11 80
66 69
31 61
24 49
27 62
8 40
26 51
13 75
0 54
4 7
1 39
63 87
23 78
12 25
64 89
37 67
30 33
5 43
70 81
3 85
10 42
28 88
47 72
